
Gurobi 9.1.2 (win64) logging started Wed Sep  1 02:05:56 2021

Changed value of parameter LogFile to ../results/logs/log_samuel_kroger_2021_09_01_02_05_40.csv_2_250.log
   Prev:   Default: 
Changed value of parameter method to 3
   Prev: -1  Min: -1  Max: 5  Default: -1
Gurobi Optimizer version 9.1.2 build v9.1.2rc0 (win64)
Thread count: 6 physical cores, 12 logical processors, using up to 12 threads
Optimize a model with 39437 rows, 116456 columns and 145215 nonzeros
Model fingerprint: 0x20665321
Variable types: 0 continuous, 116456 integer (116456 binary)
Coefficient statistics:
  Matrix range     [1e+00, 2e+00]
  Objective range  [1e+00, 1e+00]
  Bounds range     [1e+00, 1e+00]
  RHS range        [1e+00, 3e+02]
Found heuristic solution: objective -0.0000000
Presolve removed 38250 rows and 114873 columns
Presolve time: 0.10s
Presolved: 1187 rows, 1583 columns, 4401 nonzeros
Found heuristic solution: objective 250.0000000
Variable types: 0 continuous, 1583 integer (1520 binary)

Concurrent LP optimizer: primal simplex, dual simplex, and barrier
Showing barrier log only...

Root barrier log...

Ordering time: 0.00s

Barrier statistics:
 AA' NZ     : 2.785e+03
 Factor NZ  : 4.742e+03 (roughly 1 MByte of memory)
 Factor Ops : 2.522e+04 (less than 1 second per iteration)
 Threads    : 1

Barrier performed 0 iterations in 0.14 seconds
Barrier solve interrupted - model solved by another algorithm


Solved with dual simplex

Root relaxation: objective 5.855000e+02, 338 iterations, 0.01 seconds

    Nodes    |    Current Node    |     Objective Bounds      |     Work
 Expl Unexpl |  Obj  Depth IntInf | Incumbent    BestBd   Gap | It/Node Time

     0     0  585.50000    0   57  250.00000  585.50000   134%     -    0s
H    0     0                     549.0000000  585.50000  6.65%     -    0s
     0     0  575.00000    0   74  549.00000  575.00000  4.74%     -    0s
H    0     0                     558.0000000  575.00000  3.05%     -    0s
H    0     0                     560.0000000  575.00000  2.68%     -    0s
     0     0  575.00000    0   68  560.00000  575.00000  2.68%     -    0s
     0     0  575.00000    0   71  560.00000  575.00000  2.68%     -    0s
     0     0  575.00000    0   68  560.00000  575.00000  2.68%     -    0s
     0     0  575.00000    0   68  560.00000  575.00000  2.68%     -    0s
     0     2  575.00000    0   68  560.00000  575.00000  2.68%     -    0s
H   27     2                     561.0000000  565.16667  0.74%  58.9    0s

Cutting planes:
  Gomory: 36
  Cover: 159
  Implied bound: 32
  MIR: 90
  GUB cover: 99
  Zero half: 7
  Mod-K: 4
  RLT: 1

Explored 29 nodes (2883 simplex iterations) in 0.40 seconds
Thread count was 12 (of 12 available processors)

Solution count 6: 561 560 558 ... -0

Optimal solution found (tolerance 1.00e-04)
Best objective 5.610000000000e+02, best bound 5.610000000000e+02, gap 0.0000%
